db/inputs/16310262331508260562179026213598627763.smt2
(set-logic QF_FP)
(declare-const x0 (_ FloatingPoint 8 24))
(declare-const x1 (_ FloatingPoint 8 24))
(declare-const x2 (_ FloatingPoint 8 24))
(declare-const x3 (_ FloatingPoint 8 24))
(declare-const x4 (_ FloatingPoint 8 24))
(declare-const x5 (_ FloatingPoint 8 24))
(declare-const x6 (_ FloatingPoint 8 24))
(declare-const x7 (_ FloatingPoint 8 24))
(declare-const x8 (_ FloatingPoint 8 24))
(declare-const x9 (_ FloatingPoint 8 24))
(assert (fp.eq (fp.mul RNE (fp.neg (fp.mul RNE (fp.div RNE x3 x9) (fp.neg x5))) (fp.neg (fp.div RNE (fp.neg x3) (fp.add RNE x5 x2)))) (fp.mul RNE (fp.div RNE (fp.div RNE (fp.add RNE x9 x9) (fp.neg x2)) (fp.add RNE (fp.neg x7) (fp.sub RNE x8 x5))) (fp.div RNE (fp.div RNE (fp.add RNE x7 x5) (fp.sub RNE x9 x4)) (fp.sub RNE (fp.add RNE x1 x0) (fp.add RNE x2 x7))))))
(check-sat)
