db/data/16310262331508260562179026213598627763.z3.out
sat
-------------------
262.770831220
